0
0
0
0
16
0
0
0
0
0
0
0
0
0
0
0
0
0
0
0
0
1 2 1
1 3 1
1 4 1
1 5 1
1 6 1
1 7 1
1 8 0
1 9 0
1 10 0
1 11 1
1 12 0
1 13 1
1 14 1
1 15 1
1 16 1
2 3 0
2 4 0
2 5 0
2 6 0
2 7 1
2 8 1
2 9 0
2 10 0
2 11 0
2 12 0
2 13 1
2 14 0
2 15 0
2 16 0
3 4 1
3 5 1
3 6 1
3 7 0
3 8 0
3 9 0
3 10 1
3 11 0
3 12 0
3 13 0
3 14 0
3 15 0
3 16 1
4 5 0
4 6 1
4 7 1
4 8 1
4 9 0
4 10 1
4 11 1
4 12 0
4 13 1
4 14 0
4 15 1
4 16 1
5 6 0
5 7 1
5 8 1
5 9 1
5 10 0
5 11 1
5 12 1
5 13 0
5 14 1
5 15 0
5 16 0
6 7 1
6 8 1
6 9 1
6 10 0
6 11 0
6 12 1
6 13 1
6 14 1
6 15 1
6 16 1
7 8 0
7 9 0
7 10 0
7 11 0
7 12 0
7 13 1
7 14 1
7 15 0
7 16 0
8 9 1
8 10 0
8 11 0
8 12 0
8 13 1
8 14 1
8 15 1
8 16 1
9 10 1
9 11 0
9 12 1
9 13 1
9 14 1
9 15 1
9 16 0
10 11 1
10 12 1
10 13 1
10 14 0
10 15 1
10 16 1
11 12 1
11 13 1
11 14 1
11 15 0
11 16 1
12 13 1
12 14 1
12 15 1
12 16 0
13 14 1
13 15 0
13 16 0
14 15 1
14 16 0
15 16 1
